challenge2021/mznc2021_probs/monomatch/monomatch.fzn
var set of 1..13: X_INTRODUCED_0_;
var set of 1..13: X_INTRODUCED_1_;
var set of 1..13: X_INTRODUCED_2_;
var set of 1..13: X_INTRODUCED_3_;
var set of 1..13: X_INTRODUCED_4_;
var set of 1..13: X_INTRODUCED_5_;
var set of 1..13: X_INTRODUCED_6_;
var set of 1..13: X_INTRODUCED_7_;
var set of 1..13: X_INTRODUCED_8_;
var set of 1..13: X_INTRODUCED_9_;
var set of 1..13: X_INTRODUCED_10_;
var set of 1..13: X_INTRODUCED_11_;
var set of 1..13: X_INTRODUCED_24_ ::var_is_introduced :: is_defined_var;
var set of 1..13: X_INTRODUCED_26_ ::var_is_introduced :: is_defined_var;
var set of 1..13: X_INTRODUCED_28_ ::var_is_introduced :: is_defined_var;
var set of 1..13: X_INTRODUCED_30_ ::var_is_introduced :: is_defined_var;
var set of 1..13: X_INTRODUCED_32_ ::var_is_introduced :: is_defined_var;
var set of 1..13: X_INTRODUCED_34_ ::var_is_introduced :: is_defined_var;
var set of 1..13: X_INTRODUCED_36_ ::var_is_introduced :: is_defined_var;
var set of 1..13: X_INTRODUCED_38_ ::var_is_introduced :: is_defined_var;
var set of 1..13: X_INTRODUCED_40_ ::var_is_introduced :: is_defined_var;
var set of 1..13: X_INTRODUCED_42_ ::var_is_introduced :: is_defined_var;
var set of 1..13: X_INTRODUCED_44_ ::var_is_introduced :: is_defined_var;
var set of 1..13: X_INTRODUCED_46_ ::var_is_introduced :: is_defined_var;
var set of 1..13: X_INTRODUCED_48_ ::var_is_introduced :: is_defined_var;
var set of 1..13: X_INTRODUCED_50_ ::var_is_introduced :: is_defined_var;
var set of 1..13: X_INTRODUCED_52_ ::var_is_introduced :: is_defined_var;
var set of 1..13: X_INTRODUCED_54_ ::var_is_introduced :: is_defined_var;
var set of 1..13: X_INTRODUCED_56_ ::var_is_introduced :: is_defined_var;
var set of 1..13: X_INTRODUCED_58_ ::var_is_introduced :: is_defined_var;
var set of 1..13: X_INTRODUCED_60_ ::var_is_introduced :: is_defined_var;
var set of 1..13: X_INTRODUCED_62_ ::var_is_introduced :: is_defined_var;
var set of 1..13: X_INTRODUCED_64_ ::var_is_introduced :: is_defined_var;
var set of 1..13: X_INTRODUCED_66_ ::var_is_introduced :: is_defined_var;
var set of 1..13: X_INTRODUCED_68_ ::var_is_introduced :: is_defined_var;
var set of 1..13: X_INTRODUCED_70_ ::var_is_introduced :: is_defined_var;
var set of 1..13: X_INTRODUCED_72_ ::var_is_introduced :: is_defined_var;
var set of 1..13: X_INTRODUCED_74_ ::var_is_introduced :: is_defined_var;
var set of 1..13: X_INTRODUCED_76_ ::var_is_introduced :: is_defined_var;
var set of 1..13: X_INTRODUCED_78_ ::var_is_introduced :: is_defined_var;
var set of 1..13: X_INTRODUCED_80_ ::var_is_introduced :: is_defined_var;
var set of 1..13: X_INTRODUCED_82_ ::var_is_introduced :: is_defined_var;
var set of 1..13: X_INTRODUCED_84_ ::var_is_introduced :: is_defined_var;
var set of 1..13: X_INTRODUCED_86_ ::var_is_introduced :: is_defined_var;
var set of 1..13: X_INTRODUCED_88_ ::var_is_introduced :: is_defined_var;
var set of 1..13: X_INTRODUCED_90_ ::var_is_introduced :: is_defined_var;
var set of 1..13: X_INTRODUCED_92_ ::var_is_introduced :: is_defined_var;
var set of 1..13: X_INTRODUCED_94_ ::var_is_introduced :: is_defined_var;
var set of 1..13: X_INTRODUCED_96_ ::var_is_introduced :: is_defined_var;
var set of 1..13: X_INTRODUCED_98_ ::var_is_introduced :: is_defined_var;
var set of 1..13: X_INTRODUCED_100_ ::var_is_introduced :: is_defined_var;
var set of 1..13: X_INTRODUCED_102_ ::var_is_introduced :: is_defined_var;
var set of 1..13: X_INTRODUCED_104_ ::var_is_introduced :: is_defined_var;
var set of 1..13: X_INTRODUCED_106_ ::var_is_introduced :: is_defined_var;
var set of 1..13: X_INTRODUCED_108_ ::var_is_introduced :: is_defined_var;
var set of 1..13: X_INTRODUCED_110_ ::var_is_introduced :: is_defined_var;
var set of 1..13: X_INTRODUCED_112_ ::var_is_introduced :: is_defined_var;
var set of 1..13: X_INTRODUCED_114_ ::var_is_introduced :: is_defined_var;
var set of 1..13: X_INTRODUCED_116_ ::var_is_introduced :: is_defined_var;
var set of 1..13: X_INTRODUCED_118_ ::var_is_introduced :: is_defined_var;
var set of 1..13: X_INTRODUCED_120_ ::var_is_introduced :: is_defined_var;
var set of 1..13: X_INTRODUCED_122_ ::var_is_introduced :: is_defined_var;
var set of 1..13: X_INTRODUCED_124_ ::var_is_introduced :: is_defined_var;
var set of 1..13: X_INTRODUCED_126_ ::var_is_introduced :: is_defined_var;
var set of 1..13: X_INTRODUCED_128_ ::var_is_introduced :: is_defined_var;
var set of 1..13: X_INTRODUCED_130_ ::var_is_introduced :: is_defined_var;
var set of 1..13: X_INTRODUCED_132_ ::var_is_introduced :: is_defined_var;
var set of 1..13: X_INTRODUCED_134_ ::var_is_introduced :: is_defined_var;
var set of 1..13: X_INTRODUCED_136_ ::var_is_introduced :: is_defined_var;
var set of 1..13: X_INTRODUCED_138_ ::var_is_introduced :: is_defined_var;
var set of 1..13: X_INTRODUCED_140_ ::var_is_introduced :: is_defined_var;
var set of 1..13: X_INTRODUCED_142_ ::var_is_introduced :: is_defined_var;
var set of 1..13: X_INTRODUCED_144_ ::var_is_introduced :: is_defined_var;
var set of 1..13: X_INTRODUCED_146_ ::var_is_introduced :: is_defined_var;
var set of 1..13: X_INTRODUCED_148_ ::var_is_introduced :: is_defined_var;
var set of 1..13: X_INTRODUCED_150_ ::var_is_introduced :: is_defined_var;
var set of 1..13: X_INTRODUCED_152_ ::var_is_introduced :: is_defined_var;
var set of 1..13: X_INTRODUCED_154_ ::var_is_introduced :: is_defined_var;
array [1..12] of var set of int: cards:: output_array([1..12]) = [X_INTRODUCED_0_,X_INTRODUCED_1_,X_INTRODUCED_2_,X_INTRODUCED_3_,X_INTRODUCED_4_,X_INTRODUCED_5_,X_INTRODUCED_6_,X_INTRODUCED_7_,X_INTRODUCED_8_,X_INTRODUCED_9_,X_INTRODUCED_10_,X_INTRODUCED_11_];
constraint set_card(X_INTRODUCED_0_,3);
constraint set_card(X_INTRODUCED_1_,3);
constraint set_card(X_INTRODUCED_2_,3);
constraint set_card(X_INTRODUCED_3_,3);
constraint set_card(X_INTRODUCED_4_,3);
constraint set_card(X_INTRODUCED_5_,3);
constraint set_card(X_INTRODUCED_6_,3);
constraint set_card(X_INTRODUCED_7_,3);
constraint set_card(X_INTRODUCED_8_,3);
constraint set_card(X_INTRODUCED_9_,3);
constraint set_card(X_INTRODUCED_10_,3);
constraint set_card(X_INTRODUCED_11_,3);
constraint set_card(X_INTRODUCED_24_,1);
constraint set_card(X_INTRODUCED_26_,1);
constraint set_card(X_INTRODUCED_28_,1);
constraint set_card(X_INTRODUCED_30_,1);
constraint set_card(X_INTRODUCED_32_,1);
constraint set_card(X_INTRODUCED_34_,1);
constraint set_card(X_INTRODUCED_36_,1);
constraint set_card(X_INTRODUCED_38_,1);
constraint set_card(X_INTRODUCED_40_,1);
constraint set_card(X_INTRODUCED_42_,1);
constraint set_card(X_INTRODUCED_44_,1);
constraint set_card(X_INTRODUCED_46_,1);
constraint set_card(X_INTRODUCED_48_,1);
constraint set_card(X_INTRODUCED_50_,1);
constraint set_card(X_INTRODUCED_52_,1);
constraint set_card(X_INTRODUCED_54_,1);
constraint set_card(X_INTRODUCED_56_,1);
constraint set_card(X_INTRODUCED_58_,1);
constraint set_card(X_INTRODUCED_60_,1);
constraint set_card(X_INTRODUCED_62_,1);
constraint set_card(X_INTRODUCED_64_,1);
constraint set_card(X_INTRODUCED_66_,1);
constraint set_card(X_INTRODUCED_68_,1);
constraint set_card(X_INTRODUCED_70_,1);
constraint set_card(X_INTRODUCED_72_,1);
constraint set_card(X_INTRODUCED_74_,1);
constraint set_card(X_INTRODUCED_76_,1);
constraint set_card(X_INTRODUCED_78_,1);
constraint set_card(X_INTRODUCED_80_,1);
constraint set_card(X_INTRODUCED_82_,1);
constraint set_card(X_INTRODUCED_84_,1);
constraint set_card(X_INTRODUCED_86_,1);
constraint set_card(X_INTRODUCED_88_,1);
constraint set_card(X_INTRODUCED_90_,1);
constraint set_card(X_INTRODUCED_92_,1);
constraint set_card(X_INTRODUCED_94_,1);
constraint set_card(X_INTRODUCED_96_,1);
constraint set_card(X_INTRODUCED_98_,1);
constraint set_card(X_INTRODUCED_100_,1);
constraint set_card(X_INTRODUCED_102_,1);
constraint set_card(X_INTRODUCED_104_,1);
constraint set_card(X_INTRODUCED_106_,1);
constraint set_card(X_INTRODUCED_108_,1);
constraint set_card(X_INTRODUCED_110_,1);
constraint set_card(X_INTRODUCED_112_,1);
constraint set_card(X_INTRODUCED_114_,1);
constraint set_card(X_INTRODUCED_116_,1);
constraint set_card(X_INTRODUCED_118_,1);
constraint set_card(X_INTRODUCED_120_,1);
constraint set_card(X_INTRODUCED_122_,1);
constraint set_card(X_INTRODUCED_124_,1);
constraint set_card(X_INTRODUCED_126_,1);
constraint set_card(X_INTRODUCED_128_,1);
constraint set_card(X_INTRODUCED_130_,1);
constraint set_card(X_INTRODUCED_132_,1);
constraint set_card(X_INTRODUCED_134_,1);
constraint set_card(X_INTRODUCED_136_,1);
constraint set_card(X_INTRODUCED_138_,1);
constraint set_card(X_INTRODUCED_140_,1);
constraint set_card(X_INTRODUCED_142_,1);
constraint set_card(X_INTRODUCED_144_,1);
constraint set_card(X_INTRODUCED_146_,1);
constraint set_card(X_INTRODUCED_148_,1);
constraint set_card(X_INTRODUCED_150_,1);
constraint set_card(X_INTRODUCED_152_,1);
constraint set_card(X_INTRODUCED_154_,1);
constraint set_ne(X_INTRODUCED_0_,X_INTRODUCED_1_);
constraint set_ne(X_INTRODUCED_0_,X_INTRODUCED_2_);
constraint set_ne(X_INTRODUCED_0_,X_INTRODUCED_3_);
constraint set_ne(X_INTRODUCED_0_,X_INTRODUCED_4_);
constraint set_ne(X_INTRODUCED_0_,X_INTRODUCED_5_);
constraint set_ne(X_INTRODUCED_0_,X_INTRODUCED_6_);
constraint set_ne(X_INTRODUCED_0_,X_INTRODUCED_7_);
constraint set_ne(X_INTRODUCED_0_,X_INTRODUCED_8_);
constraint set_ne(X_INTRODUCED_0_,X_INTRODUCED_9_);
constraint set_ne(X_INTRODUCED_0_,X_INTRODUCED_10_);
constraint set_ne(X_INTRODUCED_0_,X_INTRODUCED_11_);
constraint set_ne(X_INTRODUCED_1_,X_INTRODUCED_2_);
constraint set_ne(X_INTRODUCED_1_,X_INTRODUCED_3_);
constraint set_ne(X_INTRODUCED_1_,X_INTRODUCED_4_);
constraint set_ne(X_INTRODUCED_1_,X_INTRODUCED_5_);
constraint set_ne(X_INTRODUCED_1_,X_INTRODUCED_6_);
constraint set_ne(X_INTRODUCED_1_,X_INTRODUCED_7_);
constraint set_ne(X_INTRODUCED_1_,X_INTRODUCED_8_);
constraint set_ne(X_INTRODUCED_1_,X_INTRODUCED_9_);
constraint set_ne(X_INTRODUCED_1_,X_INTRODUCED_10_);
constraint set_ne(X_INTRODUCED_1_,X_INTRODUCED_11_);
constraint set_ne(X_INTRODUCED_2_,X_INTRODUCED_3_);
constraint set_ne(X_INTRODUCED_2_,X_INTRODUCED_4_);
constraint set_ne(X_INTRODUCED_2_,X_INTRODUCED_5_);
constraint set_ne(X_INTRODUCED_2_,X_INTRODUCED_6_);
constraint set_ne(X_INTRODUCED_2_,X_INTRODUCED_7_);
constraint set_ne(X_INTRODUCED_2_,X_INTRODUCED_8_);
constraint set_ne(X_INTRODUCED_2_,X_INTRODUCED_9_);
constraint set_ne(X_INTRODUCED_2_,X_INTRODUCED_10_);
constraint set_ne(X_INTRODUCED_2_,X_INTRODUCED_11_);
constraint set_ne(X_INTRODUCED_3_,X_INTRODUCED_4_);
constraint set_ne(X_INTRODUCED_3_,X_INTRODUCED_5_);
constraint set_ne(X_INTRODUCED_3_,X_INTRODUCED_6_);
constraint set_ne(X_INTRODUCED_3_,X_INTRODUCED_7_);
constraint set_ne(X_INTRODUCED_3_,X_INTRODUCED_8_);
constraint set_ne(X_INTRODUCED_3_,X_INTRODUCED_9_);
constraint set_ne(X_INTRODUCED_3_,X_INTRODUCED_10_);
constraint set_ne(X_INTRODUCED_3_,X_INTRODUCED_11_);
constraint set_ne(X_INTRODUCED_4_,X_INTRODUCED_5_);
constraint set_ne(X_INTRODUCED_4_,X_INTRODUCED_6_);
constraint set_ne(X_INTRODUCED_4_,X_INTRODUCED_7_);
constraint set_ne(X_INTRODUCED_4_,X_INTRODUCED_8_);
constraint set_ne(X_INTRODUCED_4_,X_INTRODUCED_9_);
constraint set_ne(X_INTRODUCED_4_,X_INTRODUCED_10_);
constraint set_ne(X_INTRODUCED_4_,X_INTRODUCED_11_);
constraint set_ne(X_INTRODUCED_5_,X_INTRODUCED_6_);
constraint set_ne(X_INTRODUCED_5_,X_INTRODUCED_7_);
constraint set_ne(X_INTRODUCED_5_,X_INTRODUCED_8_);
constraint set_ne(X_INTRODUCED_5_,X_INTRODUCED_9_);
constraint set_ne(X_INTRODUCED_5_,X_INTRODUCED_10_);
constraint set_ne(X_INTRODUCED_5_,X_INTRODUCED_11_);
constraint set_ne(X_INTRODUCED_6_,X_INTRODUCED_7_);
constraint set_ne(X_INTRODUCED_6_,X_INTRODUCED_8_);
constraint set_ne(X_INTRODUCED_6_,X_INTRODUCED_9_);
constraint set_ne(X_INTRODUCED_6_,X_INTRODUCED_10_);
constraint set_ne(X_INTRODUCED_6_,X_INTRODUCED_11_);
constraint set_ne(X_INTRODUCED_7_,X_INTRODUCED_8_);
constraint set_ne(X_INTRODUCED_7_,X_INTRODUCED_9_);
constraint set_ne(X_INTRODUCED_7_,X_INTRODUCED_10_);
constraint set_ne(X_INTRODUCED_7_,X_INTRODUCED_11_);
constraint set_ne(X_INTRODUCED_8_,X_INTRODUCED_9_);
constraint set_ne(X_INTRODUCED_8_,X_INTRODUCED_10_);
constraint set_ne(X_INTRODUCED_8_,X_INTRODUCED_11_);
constraint set_ne(X_INTRODUCED_9_,X_INTRODUCED_10_);
constraint set_ne(X_INTRODUCED_9_,X_INTRODUCED_11_);
constraint set_ne(X_INTRODUCED_10_,X_INTRODUCED_11_);
constraint set_intersect(X_INTRODUCED_0_,X_INTRODUCED_1_,X_INTRODUCED_24_):: defines_var(X_INTRODUCED_24_);
constraint set_intersect(X_INTRODUCED_0_,X_INTRODUCED_2_,X_INTRODUCED_26_):: defines_var(X_INTRODUCED_26_);
constraint set_intersect(X_INTRODUCED_0_,X_INTRODUCED_3_,X_INTRODUCED_28_):: defines_var(X_INTRODUCED_28_);
constraint set_intersect(X_INTRODUCED_0_,X_INTRODUCED_4_,X_INTRODUCED_30_):: defines_var(X_INTRODUCED_30_);
constraint set_intersect(X_INTRODUCED_0_,X_INTRODUCED_5_,X_INTRODUCED_32_):: defines_var(X_INTRODUCED_32_);
constraint set_intersect(X_INTRODUCED_0_,X_INTRODUCED_6_,X_INTRODUCED_34_):: defines_var(X_INTRODUCED_34_);
constraint set_intersect(X_INTRODUCED_0_,X_INTRODUCED_7_,X_INTRODUCED_36_):: defines_var(X_INTRODUCED_36_);
constraint set_intersect(X_INTRODUCED_0_,X_INTRODUCED_8_,X_INTRODUCED_38_):: defines_var(X_INTRODUCED_38_);
constraint set_intersect(X_INTRODUCED_0_,X_INTRODUCED_9_,X_INTRODUCED_40_):: defines_var(X_INTRODUCED_40_);
constraint set_intersect(X_INTRODUCED_0_,X_INTRODUCED_10_,X_INTRODUCED_42_):: defines_var(X_INTRODUCED_42_);
constraint set_intersect(X_INTRODUCED_0_,X_INTRODUCED_11_,X_INTRODUCED_44_):: defines_var(X_INTRODUCED_44_);
constraint set_intersect(X_INTRODUCED_1_,X_INTRODUCED_2_,X_INTRODUCED_46_):: defines_var(X_INTRODUCED_46_);
constraint set_intersect(X_INTRODUCED_1_,X_INTRODUCED_3_,X_INTRODUCED_48_):: defines_var(X_INTRODUCED_48_);
constraint set_intersect(X_INTRODUCED_1_,X_INTRODUCED_4_,X_INTRODUCED_50_):: defines_var(X_INTRODUCED_50_);
constraint set_intersect(X_INTRODUCED_1_,X_INTRODUCED_5_,X_INTRODUCED_52_):: defines_var(X_INTRODUCED_52_);
constraint set_intersect(X_INTRODUCED_1_,X_INTRODUCED_6_,X_INTRODUCED_54_):: defines_var(X_INTRODUCED_54_);
constraint set_intersect(X_INTRODUCED_1_,X_INTRODUCED_7_,X_INTRODUCED_56_):: defines_var(X_INTRODUCED_56_);
constraint set_intersect(X_INTRODUCED_1_,X_INTRODUCED_8_,X_INTRODUCED_58_):: defines_var(X_INTRODUCED_58_);
constraint set_intersect(X_INTRODUCED_1_,X_INTRODUCED_9_,X_INTRODUCED_60_):: defines_var(X_INTRODUCED_60_);
constraint set_intersect(X_INTRODUCED_1_,X_INTRODUCED_10_,X_INTRODUCED_62_):: defines_var(X_INTRODUCED_62_);
constraint set_intersect(X_INTRODUCED_1_,X_INTRODUCED_11_,X_INTRODUCED_64_):: defines_var(X_INTRODUCED_64_);
constraint set_intersect(X_INTRODUCED_2_,X_INTRODUCED_3_,X_INTRODUCED_66_):: defines_var(X_INTRODUCED_66_);
constraint set_intersect(X_INTRODUCED_2_,X_INTRODUCED_4_,X_INTRODUCED_68_):: defines_var(X_INTRODUCED_68_);
constraint set_intersect(X_INTRODUCED_2_,X_INTRODUCED_5_,X_INTRODUCED_70_):: defines_var(X_INTRODUCED_70_);
constraint set_intersect(X_INTRODUCED_2_,X_INTRODUCED_6_,X_INTRODUCED_72_):: defines_var(X_INTRODUCED_72_);
constraint set_intersect(X_INTRODUCED_2_,X_INTRODUCED_7_,X_INTRODUCED_74_):: defines_var(X_INTRODUCED_74_);
constraint set_intersect(X_INTRODUCED_2_,X_INTRODUCED_8_,X_INTRODUCED_76_):: defines_var(X_INTRODUCED_76_);
constraint set_intersect(X_INTRODUCED_2_,X_INTRODUCED_9_,X_INTRODUCED_78_):: defines_var(X_INTRODUCED_78_);
constraint set_intersect(X_INTRODUCED_2_,X_INTRODUCED_10_,X_INTRODUCED_80_):: defines_var(X_INTRODUCED_80_);
constraint set_intersect(X_INTRODUCED_2_,X_INTRODUCED_11_,X_INTRODUCED_82_):: defines_var(X_INTRODUCED_82_);
constraint set_intersect(X_INTRODUCED_3_,X_INTRODUCED_4_,X_INTRODUCED_84_):: defines_var(X_INTRODUCED_84_);
constraint set_intersect(X_INTRODUCED_3_,X_INTRODUCED_5_,X_INTRODUCED_86_):: defines_var(X_INTRODUCED_86_);
constraint set_intersect(X_INTRODUCED_3_,X_INTRODUCED_6_,X_INTRODUCED_88_):: defines_var(X_INTRODUCED_88_);
constraint set_intersect(X_INTRODUCED_3_,X_INTRODUCED_7_,X_INTRODUCED_90_):: defines_var(X_INTRODUCED_90_);
constraint set_intersect(X_INTRODUCED_3_,X_INTRODUCED_8_,X_INTRODUCED_92_):: defines_var(X_INTRODUCED_92_);
constraint set_intersect(X_INTRODUCED_3_,X_INTRODUCED_9_,X_INTRODUCED_94_):: defines_var(X_INTRODUCED_94_);
constraint set_intersect(X_INTRODUCED_3_,X_INTRODUCED_10_,X_INTRODUCED_96_):: defines_var(X_INTRODUCED_96_);
constraint set_intersect(X_INTRODUCED_3_,X_INTRODUCED_11_,X_INTRODUCED_98_):: defines_var(X_INTRODUCED_98_);
constraint set_intersect(X_INTRODUCED_4_,X_INTRODUCED_5_,X_INTRODUCED_100_):: defines_var(X_INTRODUCED_100_);
constraint set_intersect(X_INTRODUCED_4_,X_INTRODUCED_6_,X_INTRODUCED_102_):: defines_var(X_INTRODUCED_102_);
constraint set_intersect(X_INTRODUCED_4_,X_INTRODUCED_7_,X_INTRODUCED_104_):: defines_var(X_INTRODUCED_104_);
constraint set_intersect(X_INTRODUCED_4_,X_INTRODUCED_8_,X_INTRODUCED_106_):: defines_var(X_INTRODUCED_106_);
constraint set_intersect(X_INTRODUCED_4_,X_INTRODUCED_9_,X_INTRODUCED_108_):: defines_var(X_INTRODUCED_108_);
constraint set_intersect(X_INTRODUCED_4_,X_INTRODUCED_10_,X_INTRODUCED_110_):: defines_var(X_INTRODUCED_110_);
constraint set_intersect(X_INTRODUCED_4_,X_INTRODUCED_11_,X_INTRODUCED_112_):: defines_var(X_INTRODUCED_112_);
constraint set_intersect(X_INTRODUCED_5_,X_INTRODUCED_6_,X_INTRODUCED_114_):: defines_var(X_INTRODUCED_114_);
constraint set_intersect(X_INTRODUCED_5_,X_INTRODUCED_7_,X_INTRODUCED_116_):: defines_var(X_INTRODUCED_116_);
constraint set_intersect(X_INTRODUCED_5_,X_INTRODUCED_8_,X_INTRODUCED_118_):: defines_var(X_INTRODUCED_118_);
constraint set_intersect(X_INTRODUCED_5_,X_INTRODUCED_9_,X_INTRODUCED_120_):: defines_var(X_INTRODUCED_120_);
constraint set_intersect(X_INTRODUCED_5_,X_INTRODUCED_10_,X_INTRODUCED_122_):: defines_var(X_INTRODUCED_122_);
constraint set_intersect(X_INTRODUCED_5_,X_INTRODUCED_11_,X_INTRODUCED_124_):: defines_var(X_INTRODUCED_124_);
constraint set_intersect(X_INTRODUCED_6_,X_INTRODUCED_7_,X_INTRODUCED_126_):: defines_var(X_INTRODUCED_126_);
constraint set_intersect(X_INTRODUCED_6_,X_INTRODUCED_8_,X_INTRODUCED_128_):: defines_var(X_INTRODUCED_128_);
constraint set_intersect(X_INTRODUCED_6_,X_INTRODUCED_9_,X_INTRODUCED_130_):: defines_var(X_INTRODUCED_130_);
constraint set_intersect(X_INTRODUCED_6_,X_INTRODUCED_10_,X_INTRODUCED_132_):: defines_var(X_INTRODUCED_132_);
constraint set_intersect(X_INTRODUCED_6_,X_INTRODUCED_11_,X_INTRODUCED_134_):: defines_var(X_INTRODUCED_134_);
constraint set_intersect(X_INTRODUCED_7_,X_INTRODUCED_8_,X_INTRODUCED_136_):: defines_var(X_INTRODUCED_136_);
constraint set_intersect(X_INTRODUCED_7_,X_INTRODUCED_9_,X_INTRODUCED_138_):: defines_var(X_INTRODUCED_138_);
constraint set_intersect(X_INTRODUCED_7_,X_INTRODUCED_10_,X_INTRODUCED_140_):: defines_var(X_INTRODUCED_140_);
constraint set_intersect(X_INTRODUCED_7_,X_INTRODUCED_11_,X_INTRODUCED_142_):: defines_var(X_INTRODUCED_142_);
constraint set_intersect(X_INTRODUCED_8_,X_INTRODUCED_9_,X_INTRODUCED_144_):: defines_var(X_INTRODUCED_144_);
constraint set_intersect(X_INTRODUCED_8_,X_INTRODUCED_10_,X_INTRODUCED_146_):: defines_var(X_INTRODUCED_146_);
constraint set_intersect(X_INTRODUCED_8_,X_INTRODUCED_11_,X_INTRODUCED_148_):: defines_var(X_INTRODUCED_148_);
constraint set_intersect(X_INTRODUCED_9_,X_INTRODUCED_10_,X_INTRODUCED_150_):: defines_var(X_INTRODUCED_150_);
constraint set_intersect(X_INTRODUCED_9_,X_INTRODUCED_11_,X_INTRODUCED_152_):: defines_var(X_INTRODUCED_152_);
constraint set_intersect(X_INTRODUCED_10_,X_INTRODUCED_11_,X_INTRODUCED_154_):: defines_var(X_INTRODUCED_154_);
solve :: set_search(cards,input_order,indomain_min,complete) satisfy;
