public/challenge/2021/mznc2021_probs/monomatch/monomatch.ozn
output ["cards = array1d(1..12, ",show(cards),");\n"];
set of int: Cards = 1..12;
array [Cards] of set of int: cards;
